50
100
98
96
94
87
86
85
83
81
80
79
77
77
76
75
72
70
69
69
69
68
68
68
68
67
67
66
65
65
63
62
60
60
60
59
58
56
53
53
52
52
50
50
49
45
45
44
39
36
32
30
